#************************************************************************************
#*                   Generated by cif2cell 1.2.7 2015-10-02 13:14                   *
#*  T. Bjorkman, Comp. Phys. Commun. 182, 1183-1186 (2011). Please cite generously. *
#*                                                                                  *
#*                                    (
#Zirconium)                                 *
#*                     CSDAUTH, Physical Review 18, 88- (1921)                      *
#************************************************************************************

%BLOCK LATTICE_CART
ang    # angstrom units
  11.189048216894950  -6.459999999999997   0.000000000000000
   0.000000000000000  12.920000000000000   0.000000000000000
   0.000000000000000   0.000000000000000  15.420000000000000
%ENDBLOCK LATTICE_CART

%BLOCK POSITIONS_FRAC
Zr   0.083333333333333   0.166666666666667   0.083333333333333 
Zr   0.166666666666667   0.083333333333333   0.250000000000000 
Zr   0.583333333333333   0.916666666666667   0.750000000000000 
Zr   0.333333333333333   0.166666666666667   0.750000000000000 
Zr   0.833333333333333   0.666666666666667   0.750000000000000 
Zr   0.833333333333333   0.416666666666667   0.083333333333333 
Zr   0.583333333333333   0.666666666666667   0.083333333333333 
Zr   0.083333333333333   0.666666666666667   0.416666666666667 
Zr   0.333333333333333   0.416666666666667   0.416666666666667 
Zr   0.833333333333333   0.916666666666667   0.416666666666667 
Zr   0.583333333333333   0.166666666666667   0.416666666666667 
Zr   0.083333333333333   0.916666666666667   0.083333333333333 
Zr   0.333333333333333   0.916666666666667   0.750000000000000 
Zr   0.083333333333333   0.166666666666667   0.750000000000000 
Zr   0.583333333333333   0.666666666666667   0.750000000000000 
Zr   0.583333333333333   0.416666666666667   0.083333333333333 
Zr   0.833333333333333   0.416666666666667   0.750000000000000 
Zr   0.833333333333333   0.166666666666667   0.083333333333333 
Zr   0.083333333333333   0.416666666666667   0.416666666666667 
Zr   0.583333333333333   0.916666666666667   0.416666666666667 
Zr   0.333333333333333   0.166666666666667   0.416666666666667 
Zr   0.833333333333333   0.666666666666667   0.416666666666667 
Zr   0.083333333333333   0.916666666666667   0.750000000000000 
Zr   0.083333333333333   0.666666666666667   0.083333333333333 
Zr   0.333333333333333   0.666666666666667   0.750000000000000 
Zr   0.333333333333333   0.416666666666667   0.083333333333333 
Zr   0.833333333333333   0.916666666666667   0.083333333333333 
Zr   0.583333333333333   0.166666666666667   0.083333333333333 
Zr   0.833333333333333   0.166666666666667   0.750000000000000 
Zr   0.583333333333333   0.916666666666667   0.083333333333333 
Zr   0.333333333333333   0.916666666666667   0.416666666666667 
Zr   0.083333333333333   0.166666666666667   0.416666666666667 
Zr   0.583333333333333   0.666666666666667   0.416666666666667 
Zr   0.333333333333333   0.666666666666667   0.083333333333333 
Zr   0.833333333333333   0.416666666666667   0.416666666666667 
Zr   0.583333333333333   0.416666666666667   0.750000000000000 
Zr   0.583333333333333   0.166666666666667   0.750000000000000 
Zr   0.083333333333333   0.666666666666667   0.750000000000000 
Zr   0.083333333333333   0.416666666666667   0.083333333333333 
Zr   0.333333333333333   0.416666666666667   0.750000000000000 
Zr   0.333333333333333   0.166666666666667   0.083333333333333 
Zr   0.833333333333333   0.916666666666667   0.750000000000000 
Zr   0.833333333333333   0.666666666666667   0.083333333333333 
Zr   0.083333333333333   0.916666666666667   0.416666666666667 
Zr   0.333333333333333   0.666666666666667   0.416666666666667 
Zr   0.583333333333333   0.416666666666667   0.416666666666667 
Zr   0.833333333333333   0.166666666666667   0.416666666666667 
Zr   0.333333333333333   0.916666666666667   0.083333333333333 
Zr   0.083333333333333   0.416666666666667   0.750000000000000 
Zr   0.666666666666667   0.833333333333333   0.916666666666667 
Zr   0.416666666666667   0.083333333333333   0.916666666666667 
Zr   0.916666666666667   0.583333333333333   0.916666666666667 
Zr   0.916666666666667   0.333333333333333   0.250000000000000 
Zr   0.666666666666667   0.583333333333333   0.250000000000000 
Zr   0.166666666666667   0.583333333333333   0.583333333333333 
Zr   0.416666666666667   0.333333333333333   0.583333333333333 
Zr   0.916666666666667   0.833333333333333   0.583333333333333 
Zr   0.666666666666667   0.083333333333333   0.583333333333333 
Zr   0.166666666666667   0.833333333333333   0.250000000000000 
Zr   0.416666666666667   0.833333333333333   0.916666666666667 
Zr   0.166666666666667   0.083333333333333   0.916666666666667 
Zr   0.666666666666667   0.583333333333333   0.916666666666667 
Zr   0.666666666666667   0.333333333333333   0.250000000000000 
Zr   0.916666666666667   0.333333333333333   0.916666666666667 
Zr   0.916666666666667   0.083333333333333   0.250000000000000 
Zr   0.166666666666667   0.333333333333333   0.583333333333333 
Zr   0.666666666666667   0.833333333333333   0.583333333333333 
Zr   0.416666666666667   0.083333333333333   0.583333333333333 
Zr   0.916666666666667   0.583333333333333   0.583333333333333 
Zr   0.166666666666667   0.833333333333333   0.916666666666667 
Zr   0.166666666666667   0.583333333333333   0.250000000000000 
Zr   0.416666666666667   0.583333333333333   0.916666666666667 
Zr   0.416666666666667   0.333333333333333   0.250000000000000 
Zr   0.916666666666667   0.833333333333333   0.250000000000000 
Zr   0.666666666666667   0.083333333333333   0.250000000000000 
Zr   0.916666666666667   0.083333333333333   0.916666666666667 
Zr   0.666666666666667   0.833333333333333   0.250000000000000 
Zr   0.416666666666667   0.833333333333333   0.583333333333333 
Zr   0.166666666666667   0.083333333333333   0.583333333333333 
Zr   0.666666666666667   0.583333333333333   0.583333333333333 
Zr   0.416666666666667   0.583333333333333   0.250000000000000 
Zr   0.916666666666667   0.333333333333333   0.583333333333333 
Zr   0.666666666666667   0.333333333333333   0.916666666666667 
Zr   0.666666666666667   0.083333333333333   0.916666666666667 
Zr   0.166666666666667   0.583333333333333   0.916666666666667 
Zr   0.166666666666667   0.333333333333333   0.250000000000000 
Zr   0.416666666666667   0.333333333333333   0.916666666666667 
Zr   0.416666666666667   0.083333333333333   0.250000000000000 
Zr   0.916666666666667   0.833333333333333   0.916666666666667 
Zr   0.916666666666667   0.583333333333333   0.250000000000000 
Zr   0.166666666666667   0.833333333333333   0.583333333333333 
Zr   0.416666666666667   0.583333333333333   0.583333333333333 
Zr   0.666666666666667   0.333333333333333   0.583333333333333 
Zr   0.916666666666667   0.083333333333333   0.583333333333333 
Zr   0.416666666666667   0.833333333333333   0.250000000000000 
Zr   0.166666666666667   0.333333333333333   0.916666666666667 
%ENDBLOCK POSITIONS_FRAC

# Commented out pseudopotential block for easy editing
#%BLOCK SPECIES_POT
# Zr  Zr_00.usp
#%ENDBLOCK SPECIES_POT

symmetry_generate
