#************************************************************************************
#*                   Generated by cif2cell 1.2.7 2015-10-02 13:14                   *
#*  T. Bjorkman, Comp. Phys. Commun. 182, 1183-1186 (2011). Please cite generously. *
#*                                                                                  *
#*                                    (
#Zirconium)                                 *
#*                     CSDAUTH, Physical Review 18, 88- (1921)                      *
#************************************************************************************

%BLOCK LATTICE_CART
ang    # angstrom units
  11.189048216894950  -6.459999999999997   0.000000000000000
   0.000000000000000  12.920000000000000   0.000000000000000
   0.000000000000000   0.000000000000000  15.420000000000000
%ENDBLOCK LATTICE_CART

%BLOCK POSITIONS_FRAC
Zr   0.083333333333333   0.166666666666667   0.083333333333333 
Zr   0.166666666666667   0.083333333333333   0.250000000000000 
Zr   0.583333333333333   0.916666666666667   0.750000000000000 
Zr   0.333333333333333   0.166666666666667   0.750000000000000 
Zr   0.833333333333333   0.666666666666667   0.750000000000000 
Zr   0.833333333333333   0.416666666666667   0.083333333333333 
Zr   0.583333333333333   0.666666666666667   0.083333333333333 
Zr   0.083333333333333   0.666666666666667   0.416666666666667 
Zr   0.333333333333333   0.416666666666667   0.416666666666667 
Zr   0.833333333333333   0.916666666666667   0.416666666666667 
Zr   0.583333333333333   0.166666666666667   0.416666666666667 
Zr   0.083333333333333   0.916666666666667   0.083333333333333 
Zr   0.333333333333333   0.916666666666667   0.750000000000000 
Zr   0.083333333333333   0.166666666666667   0.750000000000000 
Zr   0.583333333333333   0.666666666666667   0.750000000000000 
Zr   0.583333333333333   0.416666666666667   0.083333333333333 
Zr   0.833333333333333   0.416666666666667   0.750000000000000 
Zr   0.833333333333333   0.166666666666667   0.083333333333333 
Zr   0.083333333333333   0.416666666666667   0.416666666666667 
Zr   0.583333333333333   0.916666666666667   0.416666666666667 
Zr   0.333333333333333   0.166666666666667   0.416666666666667 
Zr   0.833333333333333   0.666666666666667   0.416666666666667 
Zr   0.083333333333333   0.916666666666667   0.750000000000000 
Zr   0.083333333333333   0.666666666666667   0.083333333333333 
Zr   0.333333333333333   0.666666666666667   0.750000000000000 
Zr   0.333333333333333   0.416666666666667   0.083333333333333 
Zr   0.833333333333333   0.916666666666667   0.083333333333333 
Zr   0.583333333333333   0.166666666666667   0.083333333333333 
Zr   0.833333333333333   0.166666666666667   0.750000000000000 
Zr   0.583333333333333   0.916666666666667   0.083333333333333 
Zr   0.333333333333333   0.916666666666667   0.416666666666667 
Zr   0.083333333333333   0.166666666666667   0.416666666666667 
Zr   0.583333333333333   0.666666666666667   0.416666666666667 
Zr   0.333333333333333   0.666666666666667   0.083333333333333 
Zr   0.833333333333333   0.416666666666667   0.416666666666667 
Zr   0.583333333333333   0.416666666666667   0.750000000000000 
Zr   0.583333333333333   0.166666666666667   0.750000000000000 
Zr   0.083333333333333   0.666666666666667   0.750000000000000 
Zr   0.083333333333333   0.416666666666667   0.083333333333333 
Zr   0.333333333333333   0.416666666666667   0.750000000000000 
Zr   0.333333333333333   0.166666666666667   0.083333333333333 
Zr   0.833333333333333   0.916666666666667   0.750000000000000 
Zr   0.833333333333333   0.666666666666667   0.083333333333333 
Zr   0.083333333333333   0.916666666666667   0.416666666666667 
Zr   0.333333333333333   0.666666666666667   0.416666666666667 
Zr   0.583333333333333   0.416666666666667   0.416666666666667 
Zr   0.833333333333333   0.166666666666667   0.416666666666667 
Zr   0.333333333333333   0.916666666666667   0.083333333333333 
Zr   0.083333333333333   0.416666666666667   0.750000000000000 
Zr   0.666666666666667   0.833333333333333   0.916666666666667 
Zr   0.416666666666667   0.083333333333333   0.916666666666667 
Zr   0.916666666666667   0.583333333333333   0.916666666666667 
Zr   0.916666666666667   0.333333333333333   0.250000000000000 
Zr   0.666666666666667   0.583333333333333   0.250000000000000 
Zr   0.166666666666667   0.583333333333333   0.583333333333333 
Zr   0.416666666666667   0.333333333333333   0.583333333333333 
Zr   0.916666666666667   0.833333333333333   0.583333333333333 
Zr   0.666666666666667   0.083333333333333   0.583333333333333 
Zr   0.166666666666667   0.833333333333333   0.250000000000000 
Zr   0.416666666666667   0.833333333333333   0.916666666666667 
Zr   0.166666666666667   0.083333333333333   0.916666666666667 
Zr   0.666666666666667   0.583333333333333   0.916666666666667 
Zr   0.666666666666667   0.333333333333333   0.250000000000000 
Zr   0.916666666666667   0.333333333333333   0.916666666666667 
Zr   0.916666666666667   0.083333333333333   0.250000000000000 
Zr   0.166666666666667   0.333333333333333   0.583333333333333 
Zr   0.666666666666667   0.833333333333333   0.583333333333333 
Zr   0.416666666666667   0.083333333333333   0.583333333333333 
Zr   0.916666666666667   0.583333333333333   0.583333333333333 
Zr   0.166666666666667   0.833333333333333   0.916666666666667 
Zr   0.166666666666667   0.583333333333333   0.250000000000000 
Zr   0.416666666666667   0.583333333333333   0.916666666666667 
Zr   0.416666666666667   0.333333333333333   0.250000000000000 
Zr   0.916666666666667   0.833333333333333   0.250000000000000 
Zr   0.666666666666667   0.083333333333333   0.250000000000000 
Zr   0.916666666666667   0.083333333333333   0.916666666666667 
Zr   0.666666666666667   0.833333333333333   0.250000000000000 
Zr   0.416666666666667   0.833333333333333   0.583333333333333 
Zr   0.166666666666667   0.083333333333333   0.583333333333333 
Zr   0.666666666666667   0.583333333333333   0.583333333333333 
Zr   0.416666666666667   0.583333333333333   0.250000000000000 
Zr   0.916666666666667   0.333333333333333   0.583333333333333 
Zr   0.666666666666667   0.333333333333333   0.916666666666667 
Zr   0.666666666666667   0.083333333333333   0.916666666666667 
Zr   0.166666666666667   0.583333333333333   0.916666666666667 
Zr   0.166666666666667   0.333333333333333   0.250000000000000 
Zr   0.416666666666667   0.333333333333333   0.916666666666667 
Zr   0.416666666666667   0.083333333333333   0.250000000000000 
Zr   0.916666666666667   0.833333333333333   0.916666666666667 
Zr   0.916666666666667   0.583333333333333   0.250000000000000 
Zr   0.166666666666667   0.833333333333333   0.583333333333333 
Zr   0.416666666666667   0.583333333333333   0.583333333333333 
Zr   0.666666666666667   0.333333333333333   0.583333333333333 
Zr   0.916666666666667   0.083333333333333   0.583333333333333 
Zr   0.416666666666667   0.833333333333333   0.250000000000000 
Zr   0.166666666666667   0.333333333333333   0.916666666666667 
%ENDBLOCK POSITIONS_FRAC

# Commented out pseudopotential block for easy editing
#%BLOCK SPECIES_POT
# Zr  Zr_00.usp
#%ENDBLOCK SPECIES_POT

%BLOCK SYMMETRY_OPS
# Symm. op. 1
  1.000000000000000   0.000000000000000   0.000000000000000 
  0.000000000000000   1.000000000000000   0.000000000000000 
  0.000000000000000   0.000000000000000   1.000000000000000 
  0.000000000000000   0.000000000000000   0.000000000000000 
# Symm. op. 2
 -1.000000000000000   0.000000000000000   0.000000000000000 
  0.000000000000000  -1.000000000000000   0.000000000000000 
  0.000000000000000   0.000000000000000  -1.000000000000000 
  0.000000000000000   0.000000000000000   0.000000000000000 
# Symm. op. 3
 -1.000000000000000  -0.000000000000000   0.000000000000000 
  0.000000000000000   1.000000000000000   0.000000000000000 
  0.000000000000000   0.000000000000000  -1.000000000000000 
  0.000000000000000   0.000000000000000   0.000000000000000 
# Symm. op. 4
  1.000000000000000   0.000000000000000   0.000000000000000 
  0.000000000000000  -1.000000000000000   0.000000000000000 
  0.000000000000000   0.000000000000000   1.000000000000000 
  0.000000000000000   0.000000000000000   0.000000000000000 
# Symm. op. 5
  0.500000000000000  -0.866025403784438   0.000000000000000 
  0.866025403784439   0.500000000000000   0.000000000000000 
  0.000000000000000   0.000000000000000  -1.000000000000000 
  0.000000000000000   0.000000000000000   0.000000000000000 
# Symm. op. 6
 -0.500000000000000  -0.866025403784438   0.000000000000000 
  0.866025403784439  -0.500000000000000   0.000000000000000 
  0.000000000000000   0.000000000000000   1.000000000000000 
  0.000000000000000   0.000000000000000   0.000000000000000 
# Symm. op. 7
 -0.500000000000000   0.866025403784438   0.000000000000000 
  0.866025403784439   0.500000000000000   0.000000000000000 
  0.000000000000000   0.000000000000000   1.000000000000000 
  0.000000000000000   0.000000000000000   0.000000000000000 
# Symm. op. 8
 -0.500000000000000   0.866025403784438   0.000000000000000 
 -0.866025403784439  -0.500000000000000   0.000000000000000 
  0.000000000000000   0.000000000000000   1.000000000000000 
  0.000000000000000   0.000000000000000   0.000000000000000 
# Symm. op. 9
  0.500000000000000   0.866025403784438   0.000000000000000 
 -0.866025403784439   0.500000000000000   0.000000000000000 
  0.000000000000000   0.000000000000000  -1.000000000000000 
  0.000000000000000   0.000000000000000   0.000000000000000 
# Symm. op. 10
 -0.500000000000000  -0.866025403784439   0.000000000000000 
 -0.866025403784439   0.500000000000000   0.000000000000000 
  0.000000000000000   0.000000000000000   1.000000000000000 
  0.000000000000000   0.000000000000000   0.000000000000000 
# Symm. op. 11
  0.500000000000000  -0.866025403784438   0.000000000000000 
 -0.866025403784439  -0.500000000000000   0.000000000000000 
  0.000000000000000   0.000000000000000  -1.000000000000000 
  0.000000000000000   0.000000000000000   0.000000000000000 
# Symm. op. 12
  0.500000000000000   0.866025403784439   0.000000000000000 
  0.866025403784439  -0.500000000000000   0.000000000000000 
  0.000000000000000   0.000000000000000  -1.000000000000000 
  0.000000000000000   0.000000000000000   0.000000000000000 
# Symm. op. 13
 -1.000000000000000   0.000000000000000   0.000000000000000 
  0.000000000000000  -1.000000000000000   0.000000000000000 
  0.000000000000000   0.000000000000000   1.000000000000000 
  0.000000000000000   0.000000000000000   0.166666666666667 
# Symm. op. 14
  1.000000000000000   0.000000000000000   0.000000000000000 
  0.000000000000000  -1.000000000000000   0.000000000000000 
  0.000000000000000   0.000000000000000  -1.000000000000000 
  0.000000000000000   0.000000000000000   0.166666666666667 
# Symm. op. 15
 -1.000000000000000  -0.000000000000000   0.000000000000000 
  0.000000000000000   1.000000000000000   0.000000000000000 
  0.000000000000000   0.000000000000000   1.000000000000000 
  0.000000000000000   0.000000000000000   0.166666666666667 
# Symm. op. 16
  1.000000000000000   0.000000000000000   0.000000000000000 
  0.000000000000000   1.000000000000000   0.000000000000000 
  0.000000000000000   0.000000000000000  -1.000000000000000 
  0.000000000000000   0.000000000000000   0.166666666666667 
# Symm. op. 17
  0.500000000000000   0.866025403784438   0.000000000000000 
 -0.866025403784439   0.500000000000000   0.000000000000000 
  0.000000000000000   0.000000000000000   1.000000000000000 
  0.000000000000000   0.000000000000000   0.166666666666667 
# Symm. op. 18
 -0.500000000000000   0.866025403784438   0.000000000000000 
  0.866025403784439   0.500000000000000   0.000000000000000 
  0.000000000000000   0.000000000000000  -1.000000000000000 
  0.000000000000000   0.000000000000000   0.166666666666667 
# Symm. op. 19
 -0.500000000000000  -0.866025403784439   0.000000000000000 
 -0.866025403784439   0.500000000000000   0.000000000000000 
  0.000000000000000   0.000000000000000  -1.000000000000000 
  0.000000000000000   0.000000000000000   0.166666666666667 
# Symm. op. 20
  0.500000000000000  -0.866025403784438   0.000000000000000 
 -0.866025403784439  -0.500000000000000   0.000000000000000 
  0.000000000000000   0.000000000000000   1.000000000000000 
  0.000000000000000   0.000000000000000   0.166666666666667 
# Symm. op. 21
  0.500000000000000   0.866025403784439   0.000000000000000 
  0.866025403784439  -0.500000000000000   0.000000000000000 
  0.000000000000000   0.000000000000000   1.000000000000000 
  0.000000000000000   0.000000000000000   0.166666666666667 
# Symm. op. 22
 -0.500000000000000   0.866025403784438   0.000000000000000 
 -0.866025403784439  -0.500000000000000   0.000000000000000 
  0.000000000000000   0.000000000000000  -1.000000000000000 
  0.000000000000000   0.000000000000000   0.166666666666667 
# Symm. op. 23
 -0.500000000000000  -0.866025403784438   0.000000000000000 
  0.866025403784439  -0.500000000000000   0.000000000000000 
  0.000000000000000   0.000000000000000  -1.000000000000000 
  0.000000000000000   0.000000000000000   0.166666666666667 
# Symm. op. 24
  0.500000000000000  -0.866025403784438   0.000000000000000 
  0.866025403784439   0.500000000000000   0.000000000000000 
  0.000000000000000   0.000000000000000   1.000000000000000 
  0.000000000000000   0.000000000000000   0.166666666666667 
# Symm. op. 25
  1.000000000000000   0.000000000000000   0.000000000000000 
  0.000000000000000   1.000000000000000   0.000000000000000 
  0.000000000000000   0.000000000000000   1.000000000000000 
  0.250000000000000   0.000000000000000   0.000000000000000 
# Symm. op. 26
  1.000000000000000   0.000000000000000   0.000000000000000 
  0.000000000000000   1.000000000000000   0.000000000000000 
  0.000000000000000   0.000000000000000   1.000000000000000 
  0.000000000000000   0.250000000000000   0.000000000000000 
# Symm. op. 27
 -1.000000000000000  -0.000000000000000   0.000000000000000 
  0.000000000000000   1.000000000000000   0.000000000000000 
  0.000000000000000   0.000000000000000  -1.000000000000000 
  0.000000000000000   0.250000000000000   0.000000000000000 
# Symm. op. 28
  1.000000000000000   0.000000000000000   0.000000000000000 
  0.000000000000000  -1.000000000000000   0.000000000000000 
  0.000000000000000   0.000000000000000   1.000000000000000 
  0.000000000000000   0.250000000000000   0.000000000000000 
# Symm. op. 29
 -1.000000000000000   0.000000000000000   0.000000000000000 
  0.000000000000000  -1.000000000000000   0.000000000000000 
  0.000000000000000   0.000000000000000  -1.000000000000000 
  0.000000000000000   0.250000000000000   0.000000000000000 
# Symm. op. 30
  1.000000000000000   0.000000000000000   0.000000000000000 
  0.000000000000000  -1.000000000000000   0.000000000000000 
  0.000000000000000   0.000000000000000   1.000000000000000 
  0.250000000000000   0.000000000000000   0.000000000000000 
# Symm. op. 31
 -1.000000000000000   0.000000000000000   0.000000000000000 
  0.000000000000000  -1.000000000000000   0.000000000000000 
  0.000000000000000   0.000000000000000  -1.000000000000000 
  0.250000000000000   0.000000000000000   0.000000000000000 
# Symm. op. 32
 -1.000000000000000  -0.000000000000000   0.000000000000000 
  0.000000000000000   1.000000000000000   0.000000000000000 
  0.000000000000000   0.000000000000000  -1.000000000000000 
  0.250000000000000   0.000000000000000   0.000000000000000 
# Symm. op. 33
 -0.500000000000000  -0.866025403784439   0.000000000000000 
 -0.866025403784439   0.500000000000000   0.000000000000000 
  0.000000000000000   0.000000000000000   1.000000000000000 
  0.000000000000000   0.250000000000000   0.000000000000000 
# Symm. op. 34
  0.500000000000000   0.866025403784439   0.000000000000000 
  0.866025403784439  -0.500000000000000   0.000000000000000 
  0.000000000000000   0.000000000000000  -1.000000000000000 
  0.000000000000000   0.250000000000000   0.000000000000000 
# Symm. op. 35
  0.500000000000000  -0.866025403784438   0.000000000000000 
 -0.866025403784439  -0.500000000000000   0.000000000000000 
  0.000000000000000   0.000000000000000  -1.000000000000000 
  0.000000000000000   0.250000000000000   0.000000000000000 
# Symm. op. 36
  0.500000000000000   0.866025403784438   0.000000000000000 
 -0.866025403784439   0.500000000000000   0.000000000000000 
  0.000000000000000   0.000000000000000  -1.000000000000000 
  0.000000000000000   0.250000000000000   0.000000000000000 
# Symm. op. 37
 -0.500000000000000   0.866025403784438   0.000000000000000 
  0.866025403784439   0.500000000000000   0.000000000000000 
  0.000000000000000   0.000000000000000   1.000000000000000 
  0.000000000000000   0.250000000000000   0.000000000000000 
# Symm. op. 38
 -0.500000000000000  -0.866025403784439   0.000000000000000 
 -0.866025403784439   0.500000000000000   0.000000000000000 
  0.000000000000000   0.000000000000000   1.000000000000000 
  0.250000000000000   0.000000000000000   0.000000000000000 
# Symm. op. 39
  0.500000000000000  -0.866025403784438   0.000000000000000 
 -0.866025403784439  -0.500000000000000   0.000000000000000 
  0.000000000000000   0.000000000000000  -1.000000000000000 
  0.250000000000000   0.000000000000000   0.000000000000000 
# Symm. op. 40
 -0.500000000000000  -0.866025403784438   0.000000000000000 
  0.866025403784439  -0.500000000000000   0.000000000000000 
  0.000000000000000   0.000000000000000   1.000000000000000 
  0.000000000000000   0.250000000000000   0.000000000000000 
# Symm. op. 41
 -0.500000000000000  -0.866025403784438   0.000000000000000 
  0.866025403784439  -0.500000000000000   0.000000000000000 
  0.000000000000000   0.000000000000000   1.000000000000000 
  0.250000000000000   0.000000000000000   0.000000000000000 
# Symm. op. 42
  0.500000000000000  -0.866025403784438   0.000000000000000 
  0.866025403784439   0.500000000000000   0.000000000000000 
  0.000000000000000   0.000000000000000  -1.000000000000000 
  0.000000000000000   0.250000000000000   0.000000000000000 
# Symm. op. 43
 -0.500000000000000   0.866025403784438   0.000000000000000 
 -0.866025403784439  -0.500000000000000   0.000000000000000 
  0.000000000000000   0.000000000000000   1.000000000000000 
  0.000000000000000   0.250000000000000   0.000000000000000 
# Symm. op. 44
  0.500000000000000  -0.866025403784438   0.000000000000000 
  0.866025403784439   0.500000000000000   0.000000000000000 
  0.000000000000000   0.000000000000000  -1.000000000000000 
  0.250000000000000   0.000000000000000   0.000000000000000 
# Symm. op. 45
  0.500000000000000   0.866025403784438   0.000000000000000 
 -0.866025403784439   0.500000000000000   0.000000000000000 
  0.000000000000000   0.000000000000000  -1.000000000000000 
  0.250000000000000   0.000000000000000   0.000000000000000 
# Symm. op. 46
 -0.500000000000000   0.866025403784438   0.000000000000000 
  0.866025403784439   0.500000000000000   0.000000000000000 
  0.000000000000000   0.000000000000000   1.000000000000000 
  0.250000000000000   0.000000000000000   0.000000000000000 
# Symm. op. 47
 -0.500000000000000   0.866025403784438   0.000000000000000 
 -0.866025403784439  -0.500000000000000   0.000000000000000 
  0.000000000000000   0.000000000000000   1.000000000000000 
  0.250000000000000   0.000000000000000   0.000000000000000 
# Symm. op. 48
  0.500000000000000   0.866025403784439   0.000000000000000 
  0.866025403784439  -0.500000000000000   0.000000000000000 
  0.000000000000000   0.000000000000000  -1.000000000000000 
  0.250000000000000   0.000000000000000   0.000000000000000 
# Symm. op. 49
 -1.000000000000000  -0.000000000000000   0.000000000000000 
  0.000000000000000   1.000000000000000   0.000000000000000 
  0.000000000000000   0.000000000000000   1.000000000000000 
  0.000000000000000   0.250000000000000   0.166666666666667 
# Symm. op. 50
 -1.000000000000000   0.000000000000000   0.000000000000000 
  0.000000000000000  -1.000000000000000   0.000000000000000 
  0.000000000000000   0.000000000000000   1.000000000000000 
  0.250000000000000   0.000000000000000   0.166666666666667 
# Symm. op. 51
  1.000000000000000   0.000000000000000   0.000000000000000 
  0.000000000000000  -1.000000000000000   0.000000000000000 
  0.000000000000000   0.000000000000000  -1.000000000000000 
  0.000000000000000   0.250000000000000   0.166666666666667 
# Symm. op. 52
 -1.000000000000000  -0.000000000000000   0.000000000000000 
  0.000000000000000   1.000000000000000   0.000000000000000 
  0.000000000000000   0.000000000000000   1.000000000000000 
  0.250000000000000   0.000000000000000   0.166666666666667 
# Symm. op. 53
  1.000000000000000   0.000000000000000   0.000000000000000 
  0.000000000000000   1.000000000000000   0.000000000000000 
  0.000000000000000   0.000000000000000  -1.000000000000000 
  0.000000000000000   0.250000000000000   0.166666666666667 
# Symm. op. 54
  1.000000000000000   0.000000000000000   0.000000000000000 
  0.000000000000000   1.000000000000000   0.000000000000000 
  0.000000000000000   0.000000000000000  -1.000000000000000 
  0.250000000000000   0.000000000000000   0.166666666666667 
# Symm. op. 55
  1.000000000000000   0.000000000000000   0.000000000000000 
  0.000000000000000  -1.000000000000000   0.000000000000000 
  0.000000000000000   0.000000000000000  -1.000000000000000 
  0.250000000000000   0.000000000000000   0.166666666666667 
# Symm. op. 56
 -1.000000000000000   0.000000000000000   0.000000000000000 
  0.000000000000000  -1.000000000000000   0.000000000000000 
  0.000000000000000   0.000000000000000   1.000000000000000 
  0.000000000000000   0.250000000000000   0.166666666666667 
# Symm. op. 57
 -0.500000000000000  -0.866025403784438   0.000000000000000 
  0.866025403784439  -0.500000000000000   0.000000000000000 
  0.000000000000000   0.000000000000000  -1.000000000000000 
  0.250000000000000   0.000000000000000   0.166666666666667 
# Symm. op. 58
  0.500000000000000   0.866025403784438   0.000000000000000 
 -0.866025403784439   0.500000000000000   0.000000000000000 
  0.000000000000000   0.000000000000000   1.000000000000000 
  0.000000000000000   0.250000000000000   0.166666666666667 
# Symm. op. 59
  0.500000000000000   0.866025403784439   0.000000000000000 
  0.866025403784439  -0.500000000000000   0.000000000000000 
  0.000000000000000   0.000000000000000   1.000000000000000 
  0.000000000000000   0.250000000000000   0.166666666666667 
# Symm. op. 60
  0.500000000000000  -0.866025403784438   0.000000000000000 
  0.866025403784439   0.500000000000000   0.000000000000000 
  0.000000000000000   0.000000000000000   1.000000000000000 
  0.000000000000000   0.250000000000000   0.166666666666667 
# Symm. op. 61
 -0.500000000000000   0.866025403784438   0.000000000000000 
  0.866025403784439   0.500000000000000   0.000000000000000 
  0.000000000000000   0.000000000000000  -1.000000000000000 
  0.000000000000000   0.250000000000000   0.166666666666667 
# Symm. op. 62
 -0.500000000000000   0.866025403784438   0.000000000000000 
 -0.866025403784439  -0.500000000000000   0.000000000000000 
  0.000000000000000   0.000000000000000  -1.000000000000000 
  0.000000000000000   0.250000000000000   0.166666666666667 
# Symm. op. 63
 -0.500000000000000  -0.866025403784438   0.000000000000000 
  0.866025403784439  -0.500000000000000   0.000000000000000 
  0.000000000000000   0.000000000000000  -1.000000000000000 
  0.000000000000000   0.250000000000000   0.166666666666667 
# Symm. op. 64
  0.500000000000000  -0.866025403784438   0.000000000000000 
 -0.866025403784439  -0.500000000000000   0.000000000000000 
  0.000000000000000   0.000000000000000   1.000000000000000 
  0.250000000000000   0.000000000000000   0.166666666666667 
# Symm. op. 65
  0.500000000000000   0.866025403784438   0.000000000000000 
 -0.866025403784439   0.500000000000000   0.000000000000000 
  0.000000000000000   0.000000000000000   1.000000000000000 
  0.250000000000000   0.000000000000000   0.166666666666667 
# Symm. op. 66
  0.500000000000000   0.866025403784439   0.000000000000000 
  0.866025403784439  -0.500000000000000   0.000000000000000 
  0.000000000000000   0.000000000000000   1.000000000000000 
  0.250000000000000   0.000000000000000   0.166666666666667 
# Symm. op. 67
 -0.500000000000000   0.866025403784438   0.000000000000000 
  0.866025403784439   0.500000000000000   0.000000000000000 
  0.000000000000000   0.000000000000000  -1.000000000000000 
  0.250000000000000   0.000000000000000   0.166666666666667 
# Symm. op. 68
 -0.500000000000000   0.866025403784438   0.000000000000000 
 -0.866025403784439  -0.500000000000000   0.000000000000000 
  0.000000000000000   0.000000000000000  -1.000000000000000 
  0.250000000000000   0.000000000000000   0.166666666666667 
# Symm. op. 69
  0.500000000000000  -0.866025403784438   0.000000000000000 
  0.866025403784439   0.500000000000000   0.000000000000000 
  0.000000000000000   0.000000000000000   1.000000000000000 
  0.250000000000000   0.000000000000000   0.166666666666667 
# Symm. op. 70
 -0.500000000000000  -0.866025403784439   0.000000000000000 
 -0.866025403784439   0.500000000000000   0.000000000000000 
  0.000000000000000   0.000000000000000  -1.000000000000000 
  0.250000000000000   0.000000000000000   0.166666666666667 
# Symm. op. 71
 -0.500000000000000  -0.866025403784439   0.000000000000000 
 -0.866025403784439   0.500000000000000   0.000000000000000 
  0.000000000000000   0.000000000000000  -1.000000000000000 
  0.000000000000000   0.250000000000000   0.166666666666667 
# Symm. op. 72
  0.500000000000000  -0.866025403784438   0.000000000000000 
 -0.866025403784439  -0.500000000000000   0.000000000000000 
  0.000000000000000   0.000000000000000   1.000000000000000 
  0.000000000000000   0.250000000000000   0.166666666666667 
# Symm. op. 73
  1.000000000000000   0.000000000000000   0.000000000000000 
  0.000000000000000   1.000000000000000   0.000000000000000 
  0.000000000000000   0.000000000000000   1.000000000000000 
  0.000000000000000   0.000000000000000   0.333333333333333 
# Symm. op. 74
  1.000000000000000   0.000000000000000   0.000000000000000 
  0.000000000000000  -1.000000000000000   0.000000000000000 
  0.000000000000000   0.000000000000000   1.000000000000000 
  0.000000000000000   0.000000000000000   0.333333333333333 
# Symm. op. 75
 -1.000000000000000  -0.000000000000000   0.000000000000000 
  0.000000000000000   1.000000000000000   0.000000000000000 
  0.000000000000000   0.000000000000000  -1.000000000000000 
  0.000000000000000   0.000000000000000   0.333333333333333 
# Symm. op. 76
 -1.000000000000000   0.000000000000000   0.000000000000000 
  0.000000000000000  -1.000000000000000   0.000000000000000 
  0.000000000000000   0.000000000000000  -1.000000000000000 
  0.000000000000000   0.000000000000000   0.333333333333333 
# Symm. op. 77
  0.500000000000000  -0.866025403784438   0.000000000000000 
  0.866025403784439   0.500000000000000   0.000000000000000 
  0.000000000000000   0.000000000000000  -1.000000000000000 
  0.000000000000000   0.000000000000000   0.333333333333333 
# Symm. op. 78
  0.500000000000000  -0.866025403784438   0.000000000000000 
 -0.866025403784439  -0.500000000000000   0.000000000000000 
  0.000000000000000   0.000000000000000  -1.000000000000000 
  0.000000000000000   0.000000000000000   0.333333333333333 
# Symm. op. 79
 -0.500000000000000   0.866025403784438   0.000000000000000 
 -0.866025403784439  -0.500000000000000   0.000000000000000 
  0.000000000000000   0.000000000000000   1.000000000000000 
  0.000000000000000   0.000000000000000   0.333333333333333 
# Symm. op. 80
 -0.500000000000000  -0.866025403784439   0.000000000000000 
 -0.866025403784439   0.500000000000000   0.000000000000000 
  0.000000000000000   0.000000000000000   1.000000000000000 
  0.000000000000000   0.000000000000000   0.333333333333333 
# Symm. op. 81
  0.500000000000000   0.866025403784438   0.000000000000000 
 -0.866025403784439   0.500000000000000   0.000000000000000 
  0.000000000000000   0.000000000000000  -1.000000000000000 
  0.000000000000000   0.000000000000000   0.333333333333333 
# Symm. op. 82
 -0.500000000000000   0.866025403784438   0.000000000000000 
  0.866025403784439   0.500000000000000   0.000000000000000 
  0.000000000000000   0.000000000000000   1.000000000000000 
  0.000000000000000   0.000000000000000   0.333333333333333 
# Symm. op. 83
 -0.500000000000000  -0.866025403784438   0.000000000000000 
  0.866025403784439  -0.500000000000000   0.000000000000000 
  0.000000000000000   0.000000000000000   1.000000000000000 
  0.000000000000000   0.000000000000000   0.333333333333333 
# Symm. op. 84
  0.500000000000000   0.866025403784439   0.000000000000000 
  0.866025403784439  -0.500000000000000   0.000000000000000 
  0.000000000000000   0.000000000000000  -1.000000000000000 
  0.000000000000000   0.000000000000000   0.333333333333333 
# Symm. op. 85
  1.000000000000000   0.000000000000000   0.000000000000000 
  0.000000000000000   1.000000000000000   0.000000000000000 
  0.000000000000000   0.000000000000000   1.000000000000000 
  0.250000000000000   0.250000000000000   0.000000000000000 
# Symm. op. 86
 -1.000000000000000   0.000000000000000   0.000000000000000 
  0.000000000000000  -1.000000000000000   0.000000000000000 
  0.000000000000000   0.000000000000000  -1.000000000000000 
  0.250000000000000   0.250000000000000   0.000000000000000 
# Symm. op. 87
  1.000000000000000   0.000000000000000   0.000000000000000 
  0.000000000000000  -1.000000000000000   0.000000000000000 
  0.000000000000000   0.000000000000000   1.000000000000000 
  0.250000000000000   0.250000000000000   0.000000000000000 
# Symm. op. 88
 -1.000000000000000  -0.000000000000000   0.000000000000000 
  0.000000000000000   1.000000000000000   0.000000000000000 
  0.000000000000000   0.000000000000000  -1.000000000000000 
  0.250000000000000   0.250000000000000   0.000000000000000 
# Symm. op. 89