#Automatic mesh 
#0
#Gamma
#1 1 1
#0. 0. 0.
Fe
0
M 
1 1 1
0 0 0 
